33D32945 STP File, STP Format Version 1.0

SECTION Comment
Name    "i080-203"
Creator "Cees Duin"
Remark  "Incidence graph"
END

SECTION Graph
Nodes 80
Edges 120
E 1 4 302
E 1 10 302
E 1 19 200
E 1 49 199
E 1 50 202
E 1 65 198
E 1 78 200
E 2 19 203
E 2 62 197
E 3 4 302
E 3 26 197
E 3 57 196
E 3 66 200
E 4 67 199
E 5 7 293
E 5 21 201
E 5 31 202
E 5 55 203
E 6 7 306
E 6 15 307
E 6 61 204
E 6 64 199
E 7 32 192
E 7 35 200
E 7 67 198
E 7 71 205
E 7 72 186
E 8 39 207
E 9 10 303
E 10 39 196
E 10 59 197
E 10 75 200
E 11 16 304
E 12 27 205
E 13 36 198
E 14 18 210
E 14 54 193
E 15 61 193
E 16 62 203
E 17 24 102
E 17 51 101
E 17 54 103
E 17 56 97
E 18 43 105
E 18 45 109
E 19 22 95
E 19 34 100
E 19 52 102
E 20 44 106
E 20 77 109
E 21 59 109
E 22 37 99
E 23 38 94
E 23 56 100
E 23 70 105
E 23 78 100
E 24 31 101
E 24 39 101
E 24 62 97
E 25 53 105
E 25 58 102
E 26 32 101
E 26 74 106
E 27 42 106
E 27 55 94
E 27 78 96
E 28 36 106
E 29 35 92
E 29 39 100
E 29 79 95
E 30 62 104
E 30 73 99
E 32 33 97
E 32 36 100
E 32 50 98
E 32 62 105
E 32 66 104
E 32 72 92
E 33 66 98
E 34 68 101
E 36 53 105
E 36 58 100
E 36 72 100
E 36 80 92
E 37 55 83
E 38 47 103
E 39 62 97
E 40 51 93
E 40 60 105
E 40 62 100
E 41 74 98
E 42 45 100
E 43 50 92
E 44 67 108
E 45 51 91
E 45 70 90
E 46 66 98
E 48 59 96
E 49 60 107
E 49 76 101
E 50 69 98
E 50 79 102
E 51 52 104
E 52 63 100
E 54 57 103
E 54 59 96
E 55 57 104
E 55 58 104
E 55 78 99
E 58 59 101
E 59 77 103
E 60 74 109
E 62 63 105
E 62 68 99
E 64 68 97
E 65 73 89
E 66 78 96
E 68 78 99
E 70 74 99
E 72 75 97
END

SECTION Terminals
Terminals 16
T 1
T 2
T 3
T 4
T 5
T 6
T 7
T 8
T 9
T 10
T 11
T 12
T 13
T 14
T 15
T 16
END

EOF
